3 
4  35 57 
5  13 29 44 59 
6  14 29 44 59 
7  14 29 44 59 
8  14 29 44 59 
9  14 30 45 
10  00 15 30 45 
11  00 15 30 45 
12  00 15 30 45 
13  00 15 30 45 
14  00 15 30 44 59 
15  14 29 44 59 
16  14 29 44 59 
17  14 29 44 59 
18  14 30 45 
19  00 15 30 45 
20  00 15 30 45 
21  00 15 30 45 
22  04 19 34 
23 
